129
100000
20559
4125
11883
8991
22065
5193
6846
24151
13049
13664
21197
5879
6725
13898
4618
4964
12948
12274
20567
8817
20655
22721
4337
14730
18298
11671
3550
6785
15315
1877
1786
8140
1229
14700
6662
21440
23009
21485
124
3933
15966
3439
19551
18680
126
19251
1534
8408
24581
11486
1675
17272
15847
5956
7683
838
9483
2442
2371
24217
11107
254
13813
9029
20350
12976
18973
17352
15394
12
18122
2040
23802
1523
23826
10624
19128
13060
14652
5580
1859
3976
16598
4123
3609
8980
11548
4067
5307
20727
6876
9460
21449
24793
24438
22453
21669
11100
9616
11557
1214
2278
12266
4500
24000
15623
2493
1061
9065
7859
2061
24743
13118
23092
4777
8042
19622
16726
7483
87
5160
17492
22307
264
5419
24761
18945
24187
9867
